Academic license - for non-commercial use only
Gurobi Optimizer version 9.0.3 build v9.0.3rc0 (mac64)
Optimize a model with 64036 rows, 60480 columns and 346170 nonzeros
Model fingerprint: 0x60df1e25
Variable types: 0 continuous, 60480 integer (60480 binary)
Coefficient statistics:
  Matrix range     [1e+00, 1e+00]
  Objective range  [1e+01, 3e+04]
  Bounds range     [1e+00, 1e+00]
  RHS range        [1e+00, 2e+02]
Presolve added 0 rows and 1470 columns
Presolve removed 30 rows and 0 columns
Presolve time: 0.88s
Presolved: 64006 rows, 61950 columns, 260610 nonzeros
Variable types: 0 continuous, 61950 integer (61950 binary)
Found heuristic solution: objective 417465.00000

Concurrent LP optimizer: dual simplex and barrier
Showing barrier log only...

Root barrier log...

Ordering time: 0.16s

Barrier statistics:
 Dense cols : 240
 AA' NZ     : 2.036e+05
 Factor NZ  : 7.761e+05 (roughly 60 MBytes of memory)
 Factor Ops : 1.196e+08 (less than 1 second per iteration)
 Threads    : 3

                  Objective                Residual
Iter       Primal          Dual         Primal    Dual     Compl     Time
   0   5.35145896e+07 -6.53093688e+07  2.17e+02 3.15e+01  9.58e+03     2s
   1   7.32300239e+05 -8.13908745e+07  1.31e+00 5.47e+02  5.03e+02     2s
   2   4.89308268e+05 -3.44474679e+07  2.68e-01 2.60e+02  1.99e+02     2s
   3   4.57553064e+05 -7.12115276e+06  1.28e-01 6.94e+01  4.26e+01     2s
   4   4.32412291e+05 -4.15340478e+05  3.92e-02 3.08e+01  4.66e+00     2s
   5   4.20916904e+05 -4.00492227e+04  2.76e-02 1.46e+01  2.52e+00     2s
   6   4.09946228e+05  1.51438190e+05  2.08e-02 7.38e+00  1.40e+00     2s
   7   3.99283149e+05  2.56536585e+05  1.58e-02 2.75e+00  7.70e-01     2s
   8   3.92185706e+05  3.07416933e+05  1.29e-02 1.41e+00  4.53e-01     2s
   9   3.86412509e+05  3.24956099e+05  1.07e-02 8.72e-01  3.26e-01     2s
  10   3.78871696e+05  3.36124392e+05  7.84e-03 5.54e-01  2.26e-01     2s
  11   3.75956086e+05  3.41896494e+05  6.80e-03 3.99e-01  1.80e-01     2s
  12   3.71015787e+05  3.46006817e+05  4.98e-03 2.84e-01  1.32e-01     2s
  13   3.67601369e+05  3.49038191e+05  3.75e-03 2.01e-01  9.78e-02     2s
  14   3.65451622e+05  3.50383986e+05  3.01e-03 1.65e-01  7.94e-02     2s
  15   3.63795684e+05  3.51481212e+05  2.44e-03 1.40e-01  6.49e-02     2s
  16   3.62845837e+05  3.53057696e+05  2.11e-03 9.74e-02  5.14e-02     2s
  17   3.62293534e+05  3.53428602e+05  1.92e-03 8.68e-02  4.65e-02     2s
  18   3.61624071e+05  3.53740275e+05  1.70e-03 7.80e-02  4.14e-02     3s
  19   3.60447430e+05  3.53999177e+05  1.30e-03 7.07e-02  3.40e-02     3s
  20   3.60277053e+05  3.54258409e+05  1.24e-03 6.41e-02  3.17e-02     3s
  21   3.59833800e+05  3.54709919e+05  1.09e-03 5.35e-02  2.69e-02     3s
  22   3.59314901e+05  3.54893213e+05  9.14e-04 4.83e-02  2.33e-02     3s
  23   3.59158669e+05  3.54971765e+05  8.60e-04 4.61e-02  2.20e-02     3s
  24   3.58853931e+05  3.55204412e+05  7.56e-04 3.97e-02  1.92e-02     3s
  25   3.58548697e+05  3.55362572e+05  6.52e-04 3.63e-02  1.68e-02     3s
  26   3.58467274e+05  3.55401202e+05  6.24e-04 3.51e-02  1.61e-02     3s
  27   3.58317430e+05  3.55513052e+05  5.73e-04 3.14e-02  1.48e-02     3s
  28   3.58187507e+05  3.55635830e+05  5.29e-04 2.90e-02  1.34e-02     3s
  29   3.58093181e+05  3.55670273e+05  4.96e-04 2.81e-02  1.28e-02     3s
  30   3.58025360e+05  3.55728172e+05  4.73e-04 2.64e-02  1.21e-02     3s
  31   3.57894419e+05  3.55779403e+05  4.29e-04 2.48e-02  1.11e-02     3s
  32   3.57783762e+05  3.55897765e+05  3.91e-04 2.15e-02  9.92e-03     3s
  33   3.57654667e+05  3.55960131e+05  3.48e-04 1.99e-02  8.92e-03     3s
  34   3.57519498e+05  3.56000190e+05  3.01e-04 1.87e-02  8.01e-03     3s
  35   3.57449875e+05  3.56064835e+05  2.77e-04 1.66e-02  7.30e-03     3s
  36   3.57421212e+05  3.56092159e+05  2.67e-04 1.57e-02  7.00e-03     3s
  37   3.57282013e+05  3.56134016e+05  2.20e-04 1.44e-02  6.06e-03     3s
  38   3.57246025e+05  3.56202565e+05  2.08e-04 1.24e-02  5.50e-03     4s
  39   3.57222447e+05  3.56234106e+05  2.00e-04 1.14e-02  5.20e-03     4s
  40   3.57141096e+05  3.56259651e+05  1.72e-04 1.06e-02  4.65e-03     4s
  41   3.57069397e+05  3.56300309e+05  1.49e-04 9.44e-03  4.06e-03     4s
  42   3.57050178e+05  3.56319339e+05  1.42e-04 8.84e-03  3.85e-03     4s
  43   3.56962017e+05  3.56377105e+05  1.14e-04 6.97e-03  3.08e-03     4s
  44   3.56907078e+05  3.56413091e+05  9.58e-05 5.98e-03  2.60e-03     4s
  45   3.56877899e+05  3.56463148e+05  8.53e-05 4.51e-03  2.18e-03     4s
  46   3.56872874e+05  3.56478137e+05  8.37e-05 4.09e-03  2.07e-03     4s
  47   3.56821462e+05  3.56491444e+05  6.77e-05 3.68e-03  1.74e-03     4s
  48   3.56811163e+05  3.56510988e+05  6.41e-05 3.21e-03  1.58e-03     4s
  49   3.56800341e+05  3.56515811e+05  6.06e-05 3.04e-03  1.49e-03     4s
  50   3.56759829e+05  3.56525850e+05  4.79e-05 2.77e-03  1.23e-03     4s
  51   3.56738554e+05  3.56543070e+05  4.14e-05 2.11e-03  1.03e-03     4s
  52   3.56725427e+05  3.56546318e+05  3.75e-05 2.00e-03  9.41e-04     4s
  53   3.56696823e+05  3.56578110e+05  2.88e-05 6.92e-04  6.18e-04     4s
  54   3.56682397e+05  3.56588647e+05  2.44e-05 4.10e-04  4.86e-04     4s
  55   3.56665189e+05  3.56593250e+05  1.95e-05 2.44e-04  3.72e-04     4s
  56   3.56657752e+05  3.56593910e+05  1.73e-05 2.26e-04  3.30e-04     4s
  57   3.56654834e+05  3.56595379e+05  1.64e-05 1.99e-04  3.07e-04     4s
  58   3.56639978e+05  3.56595690e+05  1.18e-05 1.86e-04  2.29e-04     5s
  59   3.56634564e+05  3.56596651e+05  1.02e-05 1.53e-04  1.96e-04     5s
  60   3.56632350e+05  3.56597082e+05  9.49e-06 1.44e-04  1.83e-04     5s
  61   3.56628579e+05  3.56597601e+05  8.38e-06 1.27e-04  1.60e-04     5s
  62   3.56613169e+05  3.56598705e+05  3.69e-06 7.20e-05  7.50e-05     5s
  63   3.56602485e+05  3.56600430e+05  3.70e-07 6.90e-06  1.08e-05     5s
  64   3.56601063e+05  3.56600985e+05  1.22e-08 1.03e-07  4.06e-07     5s
  65   3.56601000e+05  3.56601000e+05  2.90e-12 5.03e-08  3.87e-12     5s

Barrier solved model in 65 iterations and 4.86 seconds
Optimal objective 3.56601000e+05


Solved with barrier

Root relaxation: objective 3.566010e+05, 8703 iterations, 3.87 seconds

    Nodes    |    Current Node    |     Objective Bounds      |     Work
 Expl Unexpl |  Obj  Depth IntInf | Incumbent    BestBd   Gap | It/Node Time

*    0     0               0    356601.00000 356601.000  0.00%     -    5s

Explored 0 nodes (8703 simplex iterations) in 5.12 seconds
Thread count was 8 (of 8 available processors)

Solution count 2: 356601 417465 

Optimal solution found (tolerance 1.00e-04)
Best objective 3.566010000000e+05, best bound 3.566010000000e+05, gap 0.0000%

User-callback calls 1427, time in user-callback 0.02 sec
Solution written to /Users/mdeboute/Desktop/Etudes/Master/M2/S9/GOPP/Projet/multi-period-flp/solution/instMulti_I30_J250_T8_1_result.txt
